55
1 0 9
2 0 82
2 1 75
3 0 42
3 1 71
3 2 5
4 0 11
4 1 97
4 2 20
4 3 46
5 0 96
5 1 37
5 2 6
5 3 9
5 4 21
6 0 54
6 1 36
6 2 87
6 3 96
6 4 76
6 5 86
7 0 59
7 1 30
7 2 45
7 3 77
7 4 34
7 5 56
7 6 58
8 0 26
8 1 13
8 2 23
8 3 78
8 4 13
8 5 43
8 6 90
8 7 80
9 0 2
9 1 3
9 2 7
9 3 8
9 4 22
9 5 14
9 6 58
9 7 21
9 8 84
10 0 99
10 1 4
10 2 88
10 3 3
10 4 10
10 5 53
10 6 52
10 7 42
10 8 5
10 9 40
11 0 53
11 1 94
11 2 46
11 3 1
11 4 14
11 5 84
11 6 44
11 7 69
11 8 2
11 9 40
11 10 78
12 0 28
12 1 27
12 2 74
12 3 67
12 4 97
12 5 42
12 6 70
12 7 56
12 8 42
12 9 61
12 10 74
12 11 62
13 0 32
13 1 5
13 2 21
13 3 87
13 4 81
13 5 34
13 6 65
13 7 86
13 8 45
13 9 37
13 10 71
13 11 59
13 12 77
14 0 84
14 1 3
14 2 89
14 3 50
14 4 65
14 5 20
14 6 69
14 7 90
14 8 60
14 9 45
14 10 64
14 11 98
14 12 24
14 13 83
15 0 18
15 1 49
15 2 85
15 3 8
15 4 94
15 5 89
15 6 73
15 7 28
15 8 12
15 9 68
15 10 45
15 11 9
15 12 23
15 13 94
15 14 65
16 0 21
16 1 23
16 2 76
16 3 50
16 4 24
16 5 17
16 6 7
16 7 7
16 8 23
16 9 60
16 10 5
16 11 8
16 12 38
16 13 58
16 14 92
16 15 76
17 0 95
17 1 97
17 2 9
17 3 88
17 4 15
17 5 25
17 6 72
17 7 21
17 8 54
17 9 20
17 10 34
17 11 86
17 12 46
17 13 8
17 14 2
17 15 26
17 16 25
18 0 22
18 1 14
18 2 84
18 3 35
18 4 5
18 5 95
18 6 58
18 7 63
18 8 14
18 9 30
18 10 8
18 11 50
18 12 59
18 13 29
18 14 68
18 15 60
18 16 97
18 17 80
19 0 84
19 1 15
19 2 71
19 3 97
19 4 91
19 5 23
19 6 39
19 7 25
19 8 90
19 9 70
19 10 60
19 11 53
19 12 86
19 13 37
19 14 17
19 15 44
19 16 3
19 17 68
19 18 98
20 0 92
20 1 85
20 2 3
20 3 64
20 4 54
20 5 53
20 6 48
20 7 80
20 8 27
20 9 74
20 10 56
20 11 79
20 12 54
20 13 57
20 14 29
20 15 88
20 16 2
20 17 88
20 18 60
20 19 45
21 0 24
21 1 72
21 2 97
21 3 76
21 4 1
21 5 38
21 6 85
21 7 9
21 8 48
21 9 22
21 10 8
21 11 53
21 12 95
21 13 46
21 14 55
21 15 68
21 16 4
21 17 45
21 18 74
21 19 92
21 20 77
22 0 22
22 1 88
22 2 18
22 3 60
22 4 16
22 5 80
22 6 26
22 7 47
22 8 39
22 9 93
22 10 14
22 11 49
22 12 88
22 13 74
22 14 84
22 15 77
22 16 58
22 17 75
22 18 83
22 19 50
22 20 8
22 21 92
23 0 100
23 1 29
23 2 47
23 3 87
23 4 56
23 5 41
23 6 55
23 7 54
23 8 69
23 9 49
23 10 47
23 11 88
23 12 52
23 13 64
23 14 49
23 15 96
23 16 83
23 17 20
23 18 39
23 19 54
23 20 74
23 21 59
23 22 84
24 0 77
24 1 98
24 2 88
24 3 56
24 4 95
24 5 70
24 6 12
24 7 32
24 8 13
24 9 91
24 10 45
24 11 90
24 12 23
24 13 94
24 14 71
24 15 68
24 16 91
24 17 51
24 18 90
24 19 48
24 20 24
24 21 37
24 22 76
24 23 72
25 0 13
25 1 54
25 2 39
25 3 12
25 4 83
25 5 61
25 6 55
25 7 49
25 8 16
25 9 69
25 10 23
25 11 32
25 12 15
25 13 90
25 14 40
25 15 20
25 16 26
25 17 55
25 18 29
25 19 29
25 20 46
25 21 26
25 22 43
25 23 40
25 24 77
26 0 91
26 1 30
26 2 39
26 3 98
26 4 3
26 5 50
26 6 87
26 7 77
26 8 88
26 9 55
26 10 57
26 11 34
26 12 68
26 13 87
26 14 70
26 15 39
26 16 39
26 17 54
26 18 25
26 19 96
26 20 17
26 21 90
26 22 10
26 23 46
26 24 49
26 25 100
27 0 23
27 1 3
27 2 34
27 3 55
27 4 52
27 5 91
27 6 8
27 7 86
27 8 99
27 9 53
27 10 99
27 11 91
27 12 32
27 13 51
27 14 41
27 15 57
27 16 4
27 17 75
27 18 4
27 19 50
27 20 83
27 21 33
27 22 95
27 23 42
27 24 70
27 25 87
27 26 20
28 0 64
28 1 6
28 2 57
28 3 15
28 4 15
28 5 89
28 6 9
28 7 88
28 8 55
28 9 61
28 10 5
28 11 45
28 12 62
28 13 30
28 14 71
28 15 58
28 16 54
28 17 34
28 18 13
28 19 26
28 20 73
28 21 69
28 22 90
28 23 41
28 24 96
28 25 30
28 26 29
28 27 22
29 0 37
29 1 50
29 2 32
29 3 27
29 4 21
29 5 24
29 6 9
29 7 27
29 8 73
29 9 53
29 10 46
29 11 3
29 12 45
29 13 53
29 14 85
29 15 15
29 16 55
29 17 8
29 18 83
29 19 37
29 20 48
29 21 67
29 22 63
29 23 70
29 24 71
29 25 4
29 26 86
29 27 70
29 28 30
30 0 6
30 1 4
30 2 53
30 3 82
30 4 45
30 5 72
30 6 69
30 7 73
30 8 52
30 9 27
30 10 50
30 11 17
30 12 7
30 13 69
30 14 85
30 15 85
30 16 99
30 17 94
30 18 61
30 19 57
30 20 36
30 21 64
30 22 81
30 23 42
30 24 97
30 25 25
30 26 64
30 27 70
30 28 53
30 29 94
31 0 55
31 1 15
31 2 20
31 3 85
31 4 27
31 5 20
31 6 95
31 7 45
31 8 39
31 9 95
31 10 3
31 11 10
31 12 92
31 13 36
31 14 59
31 15 11
31 16 93
31 17 94
31 18 5
31 19 99
31 20 5
31 21 59
31 22 98
31 23 45
31 24 70
31 25 66
31 26 42
31 27 49
31 28 17
31 29 33
31 30 2
32 0 71
32 1 85
32 2 79
32 3 39
32 4 52
32 5 37
32 6 89
32 7 40
32 8 97
32 9 44
32 10 21
32 11 62
32 12 35
32 13 54
32 14 72
32 15 87
32 16 82
32 17 84
32 18 57
32 19 67
32 20 70
32 21 2
32 22 51
32 23 9
32 24 9
32 25 75
32 26 11
32 27 21
32 28 16
32 29 12
32 30 78
32 31 35
33 0 6
33 1 26
33 2 12
33 3 49
33 4 40
33 5 89
33 6 34
33 7 85
33 8 76
33 9 56
33 10 54
33 11 46
33 12 61
33 13 84
33 14 19
33 15 94
33 16 74
33 17 73
33 18 22
33 19 22
33 20 81
33 21 95
33 22 30
33 23 73
33 24 98
33 25 10
33 26 40
33 27 11
33 28 39
33 29 54
33 30 77
33 31 84
33 32 22
34 0 77
34 1 74
34 2 4
34 3 43
34 4 50
34 5 4
34 6 47
34 7 41
34 8 69
34 9 64
34 10 53
34 11 33
34 12 35
34 13 29
34 14 56
34 15 63
34 16 79
34 17 10
34 18 5
34 19 23
34 20 65
34 21 98
34 22 33
34 23 12
34 24 82
34 25 82
34 26 96
34 27 69
34 28 28
34 29 62
34 30 85
34 31 76
34 32 20
34 33 95
35 0 80
35 1 18
35 2 4
35 3 56
35 4 8
35 5 64
35 6 45
35 7 94
35 8 17
35 9 82
35 10 11
35 11 12
35 12 82
35 13 17
35 14 85
35 15 12
35 16 96
35 17 94
35 18 85
35 19 71
35 20 25
35 21 20
35 22 52
35 23 44
35 24 22
35 25 94
35 26 47
35 27 25
35 28 32
35 29 67
35 30 74
35 31 80
35 32 29
35 33 86
35 34 3
36 0 62
36 1 69
36 2 31
36 3 78
36 4 61
36 5 60
36 6 30
36 7 24
36 8 43
36 9 62
36 10 91
36 11 88
36 12 98
36 13 81
36 14 14
36 15 76
36 16 75
36 17 31
36 18 54
36 19 81
36 20 7
36 21 52
36 22 47
36 23 12
36 24 22
36 25 26
36 26 36
36 27 51
36 28 12
36 29 30
36 30 37
36 31 21
36 32 7
36 33 7
36 34 49
36 35 36
37 0 62
37 1 47
37 2 96
37 3 49
37 4 62
37 5 22
37 6 38
37 7 51
37 8 13
37 9 98
37 10 20
37 11 55
37 12 57
37 13 31
37 14 17
37 15 85
37 16 31
37 17 13
37 18 5
37 19 57
37 20 78
37 21 30
37 22 71
37 23 5
37 24 53
37 25 46
37 26 33
37 27 11
37 28 97
37 29 21
37 30 45
37 31 21
37 32 73
37 33 37
37 34 92
37 35 72
37 36 79
38 0 77
38 1 6
38 2 57
38 3 88
38 4 95
38 5 73
38 6 94
38 7 80
38 8 58
38 9 88
38 10 90
38 11 61
38 12 59
38 13 95
38 14 9
38 15 89
38 16 24
38 17 8
38 18 88
38 19 50
38 20 72
38 21 9
38 22 50
38 23 58
38 24 89
38 25 72
38 26 20
38 27 58
38 28 35
38 29 33
38 30 47
38 31 76
38 32 84
38 33 45
38 34 64
38 35 38
38 36 79
38 37 59
39 0 68
39 1 34
39 2 52
39 3 20
39 4 82
39 5 27
39 6 14
39 7 94
39 8 38
39 9 24
39 10 56
39 11 36
39 12 1
39 13 37
39 14 91
39 15 79
39 16 100
39 17 39
39 18 24
39 19 9
39 20 60
39 21 64
39 22 49
39 23 37
39 24 48
39 25 11
39 26 95
39 27 10
39 28 57
39 29 66
39 30 73
39 31 94
39 32 11
39 33 32
39 34 7
39 35 45
39 36 64
39 37 50
39 38 31
40 0 36
40 1 11
40 2 29
40 3 96
40 4 100
40 5 49
40 6 38
40 7 29
40 8 38
40 9 55
40 10 21
40 11 21
40 12 69
40 13 56
40 14 34
40 15 42
40 16 29
40 17 21
40 18 19
40 19 11
40 20 59
40 21 98
40 22 66
40 23 68
40 24 28
40 25 69
40 26 19
40 27 34
40 28 81
40 29 6
40 30 41
40 31 45
40 32 12
40 33 42
40 34 33
40 35 87
40 36 1
40 37 93
40 38 70
40 39 4
41 0 63
41 1 100
41 2 14
41 3 14
41 4 98
41 5 71
41 6 1
41 7 83
41 8 43
41 9 40
41 10 20
41 11 33
41 12 65
41 13 84
41 14 28
41 15 73
41 16 44
41 17 51
41 18 71
41 19 5
41 20 28
41 21 99
41 22 7
41 23 22
41 24 76
41 25 50
41 26 44
41 27 4
41 28 6
41 29 3
41 30 44
41 31 81
41 32 21
41 33 58
41 34 60
41 35 29
41 36 79
41 37 63
41 38 96
41 39 2
41 40 25
42 0 58
42 1 16
42 2 19
42 3 12
42 4 98
42 5 40
42 6 73
42 7 65
42 8 86
42 9 1
42 10 12
42 11 79
42 12 9
42 13 55
42 14 19
42 15 44
42 16 11
42 17 59
42 18 99
42 19 43
42 20 12
42 21 74
42 22 27
42 23 66
42 24 50
42 25 42
42 26 35
42 27 36
42 28 42
42 29 51
42 30 40
42 31 39
42 32 59
42 33 98
42 34 32
42 35 99
42 36 62
42 37 89
42 38 78
42 39 55
42 40 70
42 41 59
43 0 15
43 1 15
43 2 28
43 3 91
43 4 29
43 5 1
43 6 8
43 7 66
43 8 61
43 9 9
43 10 68
43 11 75
43 12 61
43 13 48
43 14 40
43 15 81
43 16 100
43 17 38
43 18 23
43 19 100
43 20 9
43 21 67
43 22 13
43 23 48
43 24 98
43 25 46
43 26 89
43 27 68
43 28 81
43 29 23
43 30 27
43 31 39
43 32 1
43 33 16
43 34 30
43 35 29
43 36 41
43 37 2
43 38 86
43 39 41
43 40 64
43 41 72
43 42 91
44 0 67
44 1 9
44 2 12
44 3 95
44 4 42
44 5 41
44 6 99
44 7 77
44 8 86
44 9 37
44 10 13
44 11 31
44 12 43
44 13 55
44 14 97
44 15 39
44 16 77
44 17 5
44 18 27
44 19 55
44 20 78
44 21 33
44 22 57
44 23 22
44 24 90
44 25 89
44 26 77
44 27 7
44 28 62
44 29 25
44 30 76
44 31 18
44 32 79
44 33 57
44 34 3
44 35 36
44 36 37
44 37 80
44 38 83
44 39 84
44 40 57
44 41 28
44 42 6
44 43 14
45 0 57
45 1 9
45 2 20
45 3 69
45 4 24
45 5 59
45 6 74
45 7 85
45 8 63
45 9 4
45 10 18
45 11 97
45 12 4
45 13 7
45 14 31
45 15 1
45 16 1
45 17 53
45 18 39
45 19 64
45 20 52
45 21 2
45 22 68
45 23 89
45 24 28
45 25 96
45 26 9
45 27 90
45 28 79
45 29 9
45 30 6
45 31 6
45 32 64
45 33 86
45 34 10
45 35 90
45 36 34
45 37 95
45 38 29
45 39 27
45 40 32
45 41 92
45 42 81
45 43 91
45 44 18
46 0 81
46 1 50
46 2 17
46 3 34
46 4 3
46 5 63
46 6 72
46 7 43
46 8 10
46 9 62
46 10 41
46 11 29
46 12 77
46 13 49
46 14 56
46 15 29
46 16 89
46 17 2
46 18 54
46 19 43
46 20 85
46 21 98
46 22 14
46 23 47
46 24 53
46 25 10
46 26 32
46 27 76
46 28 10
46 29 38
46 30 28
46 31 94
46 32 3
46 33 5
46 34 83
46 35 42
46 36 33
46 37 30
46 38 65
46 39 26
46 40 62
46 41 46
46 42 91
46 43 10
46 44 76
46 45 39
47 0 12
47 1 5
47 2 6
47 3 18
47 4 52
47 5 79
47 6 34
47 7 48
47 8 14
47 9 21
47 10 21
47 11 98
47 12 38
47 13 46
47 14 61
47 15 88
47 16 82
47 17 17
47 18 25
47 19 49
47 20 51
47 21 16
47 22 50
47 23 11
47 24 3
47 25 96
47 26 14
47 27 95
47 28 5
47 29 2
47 30 59
47 31 72
47 32 12
47 33 29
47 34 87
47 35 16
47 36 99
47 37 66
47 38 36
47 39 62
47 40 73
47 41 38
47 42 86
47 43 37
47 44 26
47 45 51
47 46 92
48 0 49
48 1 26
48 2 93
48 3 9
48 4 29
48 5 56
48 6 55
48 7 71
48 8 67
48 9 31
48 10 73
48 11 47
48 12 98
48 13 67
48 14 95
48 15 65
48 16 11
48 17 84
48 18 45
48 19 96
48 20 1
48 21 54
48 22 12
48 23 29
48 24 84
48 25 39
48 26 8
48 27 86
48 28 39
48 29 72
48 30 66
48 31 43
48 32 53
48 33 84
48 34 57
48 35 83
48 36 81
48 37 66
48 38 76
48 39 68
48 40 51
48 41 35
48 42 5
48 43 19
48 44 64
48 45 36
48 46 48
48 47 53
49 0 85
49 1 88
49 2 26
49 3 88
49 4 18
49 5 85
49 6 41
49 7 39
49 8 2
49 9 75
49 10 68
49 11 62
49 12 84
49 13 3
49 14 31
49 15 8
49 16 53
49 17 85
49 18 72
49 19 94
49 20 40
49 21 37
49 22 12
49 23 30
49 24 11
49 25 97
49 26 68
49 27 22
49 28 21
49 29 93
49 30 86
49 31 59
49 32 96
49 33 64
49 34 77
49 35 62
49 36 64
49 37 22
49 38 97
49 39 27
49 40 52
49 41 16
49 42 86
49 43 18
49 44 25
49 45 46
49 46 59
49 47 77
49 48 25
50 0 19
50 1 35
50 2 59
50 3 35
50 4 66
50 5 17
50 6 7
50 7 96
50 8 42
50 9 76
50 10 29
50 11 24
50 12 99
50 13 6
50 14 48
50 15 22
50 16 86
50 17 38
50 18 18
50 19 82
50 20 14
50 21 46
50 22 48
50 23 22
50 24 21
50 25 67
50 26 64
50 27 94
50 28 84
50 29 33
50 30 1
50 31 72
50 32 87
50 33 79
50 34 21
50 35 3
50 36 40
50 37 70
50 38 71
50 39 58
50 40 100
50 41 77
50 42 54
50 43 55
50 44 48
50 45 81
50 46 65
50 47 16
50 48 19
50 49 86
51 0 5
51 1 72
51 2 80
51 3 78
51 4 3
51 5 50
51 6 24
51 7 56
51 8 77
51 9 98
51 10 8
51 11 15
51 12 37
51 13 28
51 14 53
51 15 76
51 16 98
51 17 80
51 18 96
51 19 75
51 20 65
51 21 51
51 22 49
51 23 59
51 24 1
51 25 26
51 26 18
51 27 60
51 28 91
51 29 16
51 30 68
51 31 38
51 32 76
51 33 88
51 34 61
51 35 15
51 36 89
51 37 35
51 38 89
51 39 36
51 40 52
51 41 29
51 42 71
51 43 44
51 44 2
51 45 56
51 46 1
51 47 40
51 48 42
51 49 15
51 50 70
52 0 68
52 1 55
52 2 40
52 3 78
52 4 53
52 5 16
52 6 83
52 7 23
52 8 75
52 9 97
52 10 41
52 11 32
52 12 57
52 13 41
52 14 45
52 15 76
52 16 7
52 17 56
52 18 34
52 19 66
52 20 37
52 21 53
52 22 66
52 23 39
52 24 42
52 25 31
52 26 59
52 27 86
52 28 31
52 29 87
52 30 65
52 31 50
52 32 18
52 33 86
52 34 3
52 35 33
52 36 39
52 37 45
52 38 10
52 39 70
52 40 41
52 41 92
52 42 99
52 43 61
52 44 50
52 45 23
52 46 21
52 47 70
52 48 41
52 49 58
52 50 69
52 51 35
53 0 36
53 1 67
53 2 72
53 3 48
53 4 20
53 5 24
53 6 76
53 7 86
53 8 57
53 9 3
53 10 4
53 11 30
53 12 31
53 13 37
53 14 30
53 15 71
53 16 43
53 17 82
53 18 30
53 19 10
53 20 60
53 21 82
53 22 88
53 23 1
53 24 78
53 25 4
53 26 59
53 27 74
53 28 43
53 29 8
53 30 26
53 31 72
53 32 61
53 33 61
53 34 6
53 35 52
53 36 73
53 37 4
53 38 91
53 39 58
53 40 79
53 41 53
53 42 21
53 43 63
53 44 50
53 45 66
53 46 29
53 47 19
53 48 45
53 49 27
53 50 11
53 51 93
53 52 25
54 0 18
54 1 2
54 2 56
54 3 51
54 4 88
54 5 73
54 6 53
54 7 78
54 8 28
54 9 62
54 10 89
54 11 95
54 12 29
54 13 20
54 14 81
54 15 91
54 16 67
54 17 30
54 18 89
54 19 12
54 20 40
54 21 28
54 22 15
54 23 65
54 24 72
54 25 32
54 26 19
54 27 80
54 28 34
54 29 65
54 30 15
54 31 23
54 32 56
54 33 29
54 34 34
54 35 40
54 36 44
54 37 46
54 38 62
54 39 56
54 40 4
54 41 6
54 42 97
54 43 77
54 44 49
54 45 64
54 46 91
54 47 58
54 48 36
54 49 71
54 50 49
54 51 28
54 52 66
54 53 59
